c *********************************
c * Circuit generated by BenCGen
c *
c * Parity_455
c *
c * Ports with 1 gate(s): 1
c * Ports with 2 gate(s): 455
c * Total gates: 456
c *********************************
p cnf 911 1821
1 458 0
-1 -458 0
1 -457 0
458 -457 0
-1 -458 457 0
1 2 -459 0
-1 2 459 0
1 -2 459 0
-1 -2 -459 0
3 4 -460 0
-3 4 460 0
3 -4 460 0
-3 -4 -460 0
5 6 -461 0
-5 6 461 0
5 -6 461 0
-5 -6 -461 0
7 8 -462 0
-7 8 462 0
7 -8 462 0
-7 -8 -462 0
9 10 -463 0
-9 10 463 0
9 -10 463 0
-9 -10 -463 0
11 12 -464 0
-11 12 464 0
11 -12 464 0
-11 -12 -464 0
13 14 -465 0
-13 14 465 0
13 -14 465 0
-13 -14 -465 0
15 16 -466 0
-15 16 466 0
15 -16 466 0
-15 -16 -466 0
17 18 -467 0
-17 18 467 0
17 -18 467 0
-17 -18 -467 0
19 20 -468 0
-19 20 468 0
19 -20 468 0
-19 -20 -468 0
21 22 -469 0
-21 22 469 0
21 -22 469 0
-21 -22 -469 0
23 24 -470 0
-23 24 470 0
23 -24 470 0
-23 -24 -470 0
25 26 -471 0
-25 26 471 0
25 -26 471 0
-25 -26 -471 0
27 28 -472 0
-27 28 472 0
27 -28 472 0
-27 -28 -472 0
29 30 -473 0
-29 30 473 0
29 -30 473 0
-29 -30 -473 0
31 32 -474 0
-31 32 474 0
31 -32 474 0
-31 -32 -474 0
33 34 -475 0
-33 34 475 0
33 -34 475 0
-33 -34 -475 0
35 36 -476 0
-35 36 476 0
35 -36 476 0
-35 -36 -476 0
37 38 -477 0
-37 38 477 0
37 -38 477 0
-37 -38 -477 0
39 40 -478 0
-39 40 478 0
39 -40 478 0
-39 -40 -478 0
41 42 -479 0
-41 42 479 0
41 -42 479 0
-41 -42 -479 0
43 44 -480 0
-43 44 480 0
43 -44 480 0
-43 -44 -480 0
45 46 -481 0
-45 46 481 0
45 -46 481 0
-45 -46 -481 0
47 48 -482 0
-47 48 482 0
47 -48 482 0
-47 -48 -482 0
49 50 -483 0
-49 50 483 0
49 -50 483 0
-49 -50 -483 0
51 52 -484 0
-51 52 484 0
51 -52 484 0
-51 -52 -484 0
53 54 -485 0
-53 54 485 0
53 -54 485 0
-53 -54 -485 0
55 56 -486 0
-55 56 486 0
55 -56 486 0
-55 -56 -486 0
57 58 -487 0
-57 58 487 0
57 -58 487 0
-57 -58 -487 0
59 60 -488 0
-59 60 488 0
59 -60 488 0
-59 -60 -488 0
61 62 -489 0
-61 62 489 0
61 -62 489 0
-61 -62 -489 0
63 64 -490 0
-63 64 490 0
63 -64 490 0
-63 -64 -490 0
65 66 -491 0
-65 66 491 0
65 -66 491 0
-65 -66 -491 0
67 68 -492 0
-67 68 492 0
67 -68 492 0
-67 -68 -492 0
69 70 -493 0
-69 70 493 0
69 -70 493 0
-69 -70 -493 0
71 72 -494 0
-71 72 494 0
71 -72 494 0
-71 -72 -494 0
73 74 -495 0
-73 74 495 0
73 -74 495 0
-73 -74 -495 0
75 76 -496 0
-75 76 496 0
75 -76 496 0
-75 -76 -496 0
77 78 -497 0
-77 78 497 0
77 -78 497 0
-77 -78 -497 0
79 80 -498 0
-79 80 498 0
79 -80 498 0
-79 -80 -498 0
81 82 -499 0
-81 82 499 0
81 -82 499 0
-81 -82 -499 0
83 84 -500 0
-83 84 500 0
83 -84 500 0
-83 -84 -500 0
85 86 -501 0
-85 86 501 0
85 -86 501 0
-85 -86 -501 0
87 88 -502 0
-87 88 502 0
87 -88 502 0
-87 -88 -502 0
89 90 -503 0
-89 90 503 0
89 -90 503 0
-89 -90 -503 0
91 92 -504 0
-91 92 504 0
91 -92 504 0
-91 -92 -504 0
93 94 -505 0
-93 94 505 0
93 -94 505 0
-93 -94 -505 0
95 96 -506 0
-95 96 506 0
95 -96 506 0
-95 -96 -506 0
97 98 -507 0
-97 98 507 0
97 -98 507 0
-97 -98 -507 0
99 100 -508 0
-99 100 508 0
99 -100 508 0
-99 -100 -508 0
101 102 -509 0
-101 102 509 0
101 -102 509 0
-101 -102 -509 0
103 104 -510 0
-103 104 510 0
103 -104 510 0
-103 -104 -510 0
105 106 -511 0
-105 106 511 0
105 -106 511 0
-105 -106 -511 0
107 108 -512 0
-107 108 512 0
107 -108 512 0
-107 -108 -512 0
109 110 -513 0
-109 110 513 0
109 -110 513 0
-109 -110 -513 0
111 112 -514 0
-111 112 514 0
111 -112 514 0
-111 -112 -514 0
113 114 -515 0
-113 114 515 0
113 -114 515 0
-113 -114 -515 0
115 116 -516 0
-115 116 516 0
115 -116 516 0
-115 -116 -516 0
117 118 -517 0
-117 118 517 0
117 -118 517 0
-117 -118 -517 0
119 120 -518 0
-119 120 518 0
119 -120 518 0
-119 -120 -518 0
121 122 -519 0
-121 122 519 0
121 -122 519 0
-121 -122 -519 0
123 124 -520 0
-123 124 520 0
123 -124 520 0
-123 -124 -520 0
125 126 -521 0
-125 126 521 0
125 -126 521 0
-125 -126 -521 0
127 128 -522 0
-127 128 522 0
127 -128 522 0
-127 -128 -522 0
129 130 -523 0
-129 130 523 0
129 -130 523 0
-129 -130 -523 0
131 132 -524 0
-131 132 524 0
131 -132 524 0
-131 -132 -524 0
133 134 -525 0
-133 134 525 0
133 -134 525 0
-133 -134 -525 0
135 136 -526 0
-135 136 526 0
135 -136 526 0
-135 -136 -526 0
137 138 -527 0
-137 138 527 0
137 -138 527 0
-137 -138 -527 0
139 140 -528 0
-139 140 528 0
139 -140 528 0
-139 -140 -528 0
141 142 -529 0
-141 142 529 0
141 -142 529 0
-141 -142 -529 0
143 144 -530 0
-143 144 530 0
143 -144 530 0
-143 -144 -530 0
145 146 -531 0
-145 146 531 0
145 -146 531 0
-145 -146 -531 0
147 148 -532 0
-147 148 532 0
147 -148 532 0
-147 -148 -532 0
149 150 -533 0
-149 150 533 0
149 -150 533 0
-149 -150 -533 0
151 152 -534 0
-151 152 534 0
151 -152 534 0
-151 -152 -534 0
153 154 -535 0
-153 154 535 0
153 -154 535 0
-153 -154 -535 0
155 156 -536 0
-155 156 536 0
155 -156 536 0
-155 -156 -536 0
157 158 -537 0
-157 158 537 0
157 -158 537 0
-157 -158 -537 0
159 160 -538 0
-159 160 538 0
159 -160 538 0
-159 -160 -538 0
161 162 -539 0
-161 162 539 0
161 -162 539 0
-161 -162 -539 0
163 164 -540 0
-163 164 540 0
163 -164 540 0
-163 -164 -540 0
165 166 -541 0
-165 166 541 0
165 -166 541 0
-165 -166 -541 0
167 168 -542 0
-167 168 542 0
167 -168 542 0
-167 -168 -542 0
169 170 -543 0
-169 170 543 0
169 -170 543 0
-169 -170 -543 0
171 172 -544 0
-171 172 544 0
171 -172 544 0
-171 -172 -544 0
173 174 -545 0
-173 174 545 0
173 -174 545 0
-173 -174 -545 0
175 176 -546 0
-175 176 546 0
175 -176 546 0
-175 -176 -546 0
177 178 -547 0
-177 178 547 0
177 -178 547 0
-177 -178 -547 0
179 180 -548 0
-179 180 548 0
179 -180 548 0
-179 -180 -548 0
181 182 -549 0
-181 182 549 0
181 -182 549 0
-181 -182 -549 0
183 184 -550 0
-183 184 550 0
183 -184 550 0
-183 -184 -550 0
185 186 -551 0
-185 186 551 0
185 -186 551 0
-185 -186 -551 0
187 188 -552 0
-187 188 552 0
187 -188 552 0
-187 -188 -552 0
189 190 -553 0
-189 190 553 0
189 -190 553 0
-189 -190 -553 0
191 192 -554 0
-191 192 554 0
191 -192 554 0
-191 -192 -554 0
193 194 -555 0
-193 194 555 0
193 -194 555 0
-193 -194 -555 0
195 196 -556 0
-195 196 556 0
195 -196 556 0
-195 -196 -556 0
197 198 -557 0
-197 198 557 0
197 -198 557 0
-197 -198 -557 0
199 200 -558 0
-199 200 558 0
199 -200 558 0
-199 -200 -558 0
201 202 -559 0
-201 202 559 0
201 -202 559 0
-201 -202 -559 0
203 204 -560 0
-203 204 560 0
203 -204 560 0
-203 -204 -560 0
205 206 -561 0
-205 206 561 0
205 -206 561 0
-205 -206 -561 0
207 208 -562 0
-207 208 562 0
207 -208 562 0
-207 -208 -562 0
209 210 -563 0
-209 210 563 0
209 -210 563 0
-209 -210 -563 0
211 212 -564 0
-211 212 564 0
211 -212 564 0
-211 -212 -564 0
213 214 -565 0
-213 214 565 0
213 -214 565 0
-213 -214 -565 0
215 216 -566 0
-215 216 566 0
215 -216 566 0
-215 -216 -566 0
217 218 -567 0
-217 218 567 0
217 -218 567 0
-217 -218 -567 0
219 220 -568 0
-219 220 568 0
219 -220 568 0
-219 -220 -568 0
221 222 -569 0
-221 222 569 0
221 -222 569 0
-221 -222 -569 0
223 224 -570 0
-223 224 570 0
223 -224 570 0
-223 -224 -570 0
225 226 -571 0
-225 226 571 0
225 -226 571 0
-225 -226 -571 0
227 228 -572 0
-227 228 572 0
227 -228 572 0
-227 -228 -572 0
229 230 -573 0
-229 230 573 0
229 -230 573 0
-229 -230 -573 0
231 232 -574 0
-231 232 574 0
231 -232 574 0
-231 -232 -574 0
233 234 -575 0
-233 234 575 0
233 -234 575 0
-233 -234 -575 0
235 236 -576 0
-235 236 576 0
235 -236 576 0
-235 -236 -576 0
237 238 -577 0
-237 238 577 0
237 -238 577 0
-237 -238 -577 0
239 240 -578 0
-239 240 578 0
239 -240 578 0
-239 -240 -578 0
241 242 -579 0
-241 242 579 0
241 -242 579 0
-241 -242 -579 0
243 244 -580 0
-243 244 580 0
243 -244 580 0
-243 -244 -580 0
245 246 -581 0
-245 246 581 0
245 -246 581 0
-245 -246 -581 0
247 248 -582 0
-247 248 582 0
247 -248 582 0
-247 -248 -582 0
249 250 -583 0
-249 250 583 0
249 -250 583 0
-249 -250 -583 0
251 252 -584 0
-251 252 584 0
251 -252 584 0
-251 -252 -584 0
253 254 -585 0
-253 254 585 0
253 -254 585 0
-253 -254 -585 0
255 256 -586 0
-255 256 586 0
255 -256 586 0
-255 -256 -586 0
257 258 -587 0
-257 258 587 0
257 -258 587 0
-257 -258 -587 0
259 260 -588 0
-259 260 588 0
259 -260 588 0
-259 -260 -588 0
261 262 -589 0
-261 262 589 0
261 -262 589 0
-261 -262 -589 0
263 264 -590 0
-263 264 590 0
263 -264 590 0
-263 -264 -590 0
265 266 -591 0
-265 266 591 0
265 -266 591 0
-265 -266 -591 0
267 268 -592 0
-267 268 592 0
267 -268 592 0
-267 -268 -592 0
269 270 -593 0
-269 270 593 0
269 -270 593 0
-269 -270 -593 0
271 272 -594 0
-271 272 594 0
271 -272 594 0
-271 -272 -594 0
273 274 -595 0
-273 274 595 0
273 -274 595 0
-273 -274 -595 0
275 276 -596 0
-275 276 596 0
275 -276 596 0
-275 -276 -596 0
277 278 -597 0
-277 278 597 0
277 -278 597 0
-277 -278 -597 0
279 280 -598 0
-279 280 598 0
279 -280 598 0
-279 -280 -598 0
281 282 -599 0
-281 282 599 0
281 -282 599 0
-281 -282 -599 0
283 284 -600 0
-283 284 600 0
283 -284 600 0
-283 -284 -600 0
285 286 -601 0
-285 286 601 0
285 -286 601 0
-285 -286 -601 0
287 288 -602 0
-287 288 602 0
287 -288 602 0
-287 -288 -602 0
289 290 -603 0
-289 290 603 0
289 -290 603 0
-289 -290 -603 0
291 292 -604 0
-291 292 604 0
291 -292 604 0
-291 -292 -604 0
293 294 -605 0
-293 294 605 0
293 -294 605 0
-293 -294 -605 0
295 296 -606 0
-295 296 606 0
295 -296 606 0
-295 -296 -606 0
297 298 -607 0
-297 298 607 0
297 -298 607 0
-297 -298 -607 0
299 300 -608 0
-299 300 608 0
299 -300 608 0
-299 -300 -608 0
301 302 -609 0
-301 302 609 0
301 -302 609 0
-301 -302 -609 0
303 304 -610 0
-303 304 610 0
303 -304 610 0
-303 -304 -610 0
305 306 -611 0
-305 306 611 0
305 -306 611 0
-305 -306 -611 0
307 308 -612 0
-307 308 612 0
307 -308 612 0
-307 -308 -612 0
309 310 -613 0
-309 310 613 0
309 -310 613 0
-309 -310 -613 0
311 312 -614 0
-311 312 614 0
311 -312 614 0
-311 -312 -614 0
313 314 -615 0
-313 314 615 0
313 -314 615 0
-313 -314 -615 0
315 316 -616 0
-315 316 616 0
315 -316 616 0
-315 -316 -616 0
317 318 -617 0
-317 318 617 0
317 -318 617 0
-317 -318 -617 0
319 320 -618 0
-319 320 618 0
319 -320 618 0
-319 -320 -618 0
321 322 -619 0
-321 322 619 0
321 -322 619 0
-321 -322 -619 0
323 324 -620 0
-323 324 620 0
323 -324 620 0
-323 -324 -620 0
325 326 -621 0
-325 326 621 0
325 -326 621 0
-325 -326 -621 0
327 328 -622 0
-327 328 622 0
327 -328 622 0
-327 -328 -622 0
329 330 -623 0
-329 330 623 0
329 -330 623 0
-329 -330 -623 0
331 332 -624 0
-331 332 624 0
331 -332 624 0
-331 -332 -624 0
333 334 -625 0
-333 334 625 0
333 -334 625 0
-333 -334 -625 0
335 336 -626 0
-335 336 626 0
335 -336 626 0
-335 -336 -626 0
337 338 -627 0
-337 338 627 0
337 -338 627 0
-337 -338 -627 0
339 340 -628 0
-339 340 628 0
339 -340 628 0
-339 -340 -628 0
341 342 -629 0
-341 342 629 0
341 -342 629 0
-341 -342 -629 0
343 344 -630 0
-343 344 630 0
343 -344 630 0
-343 -344 -630 0
345 346 -631 0
-345 346 631 0
345 -346 631 0
-345 -346 -631 0
347 348 -632 0
-347 348 632 0
347 -348 632 0
-347 -348 -632 0
349 350 -633 0
-349 350 633 0
349 -350 633 0
-349 -350 -633 0
351 352 -634 0
-351 352 634 0
351 -352 634 0
-351 -352 -634 0
353 354 -635 0
-353 354 635 0
353 -354 635 0
-353 -354 -635 0
355 356 -636 0
-355 356 636 0
355 -356 636 0
-355 -356 -636 0
357 358 -637 0
-357 358 637 0
357 -358 637 0
-357 -358 -637 0
359 360 -638 0
-359 360 638 0
359 -360 638 0
-359 -360 -638 0
361 362 -639 0
-361 362 639 0
361 -362 639 0
-361 -362 -639 0
363 364 -640 0
-363 364 640 0
363 -364 640 0
-363 -364 -640 0
365 366 -641 0
-365 366 641 0
365 -366 641 0
-365 -366 -641 0
367 368 -642 0
-367 368 642 0
367 -368 642 0
-367 -368 -642 0
369 370 -643 0
-369 370 643 0
369 -370 643 0
-369 -370 -643 0
371 372 -644 0
-371 372 644 0
371 -372 644 0
-371 -372 -644 0
373 374 -645 0
-373 374 645 0
373 -374 645 0
-373 -374 -645 0
375 376 -646 0
-375 376 646 0
375 -376 646 0
-375 -376 -646 0
377 378 -647 0
-377 378 647 0
377 -378 647 0
-377 -378 -647 0
379 380 -648 0
-379 380 648 0
379 -380 648 0
-379 -380 -648 0
381 382 -649 0
-381 382 649 0
381 -382 649 0
-381 -382 -649 0
383 384 -650 0
-383 384 650 0
383 -384 650 0
-383 -384 -650 0
385 386 -651 0
-385 386 651 0
385 -386 651 0
-385 -386 -651 0
387 388 -652 0
-387 388 652 0
387 -388 652 0
-387 -388 -652 0
389 390 -653 0
-389 390 653 0
389 -390 653 0
-389 -390 -653 0
391 392 -654 0
-391 392 654 0
391 -392 654 0
-391 -392 -654 0
393 394 -655 0
-393 394 655 0
393 -394 655 0
-393 -394 -655 0
395 396 -656 0
-395 396 656 0
395 -396 656 0
-395 -396 -656 0
397 398 -657 0
-397 398 657 0
397 -398 657 0
-397 -398 -657 0
399 400 -658 0
-399 400 658 0
399 -400 658 0
-399 -400 -658 0
401 402 -659 0
-401 402 659 0
401 -402 659 0
-401 -402 -659 0
403 404 -660 0
-403 404 660 0
403 -404 660 0
-403 -404 -660 0
405 406 -661 0
-405 406 661 0
405 -406 661 0
-405 -406 -661 0
407 408 -662 0
-407 408 662 0
407 -408 662 0
-407 -408 -662 0
409 410 -663 0
-409 410 663 0
409 -410 663 0
-409 -410 -663 0
411 412 -664 0
-411 412 664 0
411 -412 664 0
-411 -412 -664 0
413 414 -665 0
-413 414 665 0
413 -414 665 0
-413 -414 -665 0
415 416 -666 0
-415 416 666 0
415 -416 666 0
-415 -416 -666 0
417 418 -667 0
-417 418 667 0
417 -418 667 0
-417 -418 -667 0
419 420 -668 0
-419 420 668 0
419 -420 668 0
-419 -420 -668 0
421 422 -669 0
-421 422 669 0
421 -422 669 0
-421 -422 -669 0
423 424 -670 0
-423 424 670 0
423 -424 670 0
-423 -424 -670 0
425 426 -671 0
-425 426 671 0
425 -426 671 0
-425 -426 -671 0
427 428 -672 0
-427 428 672 0
427 -428 672 0
-427 -428 -672 0
429 430 -673 0
-429 430 673 0
429 -430 673 0
-429 -430 -673 0
431 432 -674 0
-431 432 674 0
431 -432 674 0
-431 -432 -674 0
433 434 -675 0
-433 434 675 0
433 -434 675 0
-433 -434 -675 0
435 436 -676 0
-435 436 676 0
435 -436 676 0
-435 -436 -676 0
437 438 -677 0
-437 438 677 0
437 -438 677 0
-437 -438 -677 0
439 440 -678 0
-439 440 678 0
439 -440 678 0
-439 -440 -678 0
441 442 -679 0
-441 442 679 0
441 -442 679 0
-441 -442 -679 0
443 444 -680 0
-443 444 680 0
443 -444 680 0
-443 -444 -680 0
445 446 -681 0
-445 446 681 0
445 -446 681 0
-445 -446 -681 0
447 448 -682 0
-447 448 682 0
447 -448 682 0
-447 -448 -682 0
449 450 -683 0
-449 450 683 0
449 -450 683 0
-449 -450 -683 0
451 452 -684 0
-451 452 684 0
451 -452 684 0
-451 -452 -684 0
453 454 -685 0
-453 454 685 0
453 -454 685 0
-453 -454 -685 0
459 460 -686 0
-459 460 686 0
459 -460 686 0
-459 -460 -686 0
461 462 -687 0
-461 462 687 0
461 -462 687 0
-461 -462 -687 0
463 464 -688 0
-463 464 688 0
463 -464 688 0
-463 -464 -688 0
465 466 -689 0
-465 466 689 0
465 -466 689 0
-465 -466 -689 0
467 468 -690 0
-467 468 690 0
467 -468 690 0
-467 -468 -690 0
469 470 -691 0
-469 470 691 0
469 -470 691 0
-469 -470 -691 0
471 472 -692 0
-471 472 692 0
471 -472 692 0
-471 -472 -692 0
473 474 -693 0
-473 474 693 0
473 -474 693 0
-473 -474 -693 0
475 476 -694 0
-475 476 694 0
475 -476 694 0
-475 -476 -694 0
477 478 -695 0
-477 478 695 0
477 -478 695 0
-477 -478 -695 0
479 480 -696 0
-479 480 696 0
479 -480 696 0
-479 -480 -696 0
481 482 -697 0
-481 482 697 0
481 -482 697 0
-481 -482 -697 0
483 484 -698 0
-483 484 698 0
483 -484 698 0
-483 -484 -698 0
485 486 -699 0
-485 486 699 0
485 -486 699 0
-485 -486 -699 0
487 488 -700 0
-487 488 700 0
487 -488 700 0
-487 -488 -700 0
489 490 -701 0
-489 490 701 0
489 -490 701 0
-489 -490 -701 0
491 492 -702 0
-491 492 702 0
491 -492 702 0
-491 -492 -702 0
493 494 -703 0
-493 494 703 0
493 -494 703 0
-493 -494 -703 0
495 496 -704 0
-495 496 704 0
495 -496 704 0
-495 -496 -704 0
497 498 -705 0
-497 498 705 0
497 -498 705 0
-497 -498 -705 0
499 500 -706 0
-499 500 706 0
499 -500 706 0
-499 -500 -706 0
501 502 -707 0
-501 502 707 0
501 -502 707 0
-501 -502 -707 0
503 504 -708 0
-503 504 708 0
503 -504 708 0
-503 -504 -708 0
505 506 -709 0
-505 506 709 0
505 -506 709 0
-505 -506 -709 0
507 508 -710 0
-507 508 710 0
507 -508 710 0
-507 -508 -710 0
509 510 -711 0
-509 510 711 0
509 -510 711 0
-509 -510 -711 0
511 512 -712 0
-511 512 712 0
511 -512 712 0
-511 -512 -712 0
513 514 -713 0
-513 514 713 0
513 -514 713 0
-513 -514 -713 0
515 516 -714 0
-515 516 714 0
515 -516 714 0
-515 -516 -714 0
517 518 -715 0
-517 518 715 0
517 -518 715 0
-517 -518 -715 0
519 520 -716 0
-519 520 716 0
519 -520 716 0
-519 -520 -716 0
521 522 -717 0
-521 522 717 0
521 -522 717 0
-521 -522 -717 0
523 524 -718 0
-523 524 718 0
523 -524 718 0
-523 -524 -718 0
525 526 -719 0
-525 526 719 0
525 -526 719 0
-525 -526 -719 0
527 528 -720 0
-527 528 720 0
527 -528 720 0
-527 -528 -720 0
529 530 -721 0
-529 530 721 0
529 -530 721 0
-529 -530 -721 0
531 532 -722 0
-531 532 722 0
531 -532 722 0
-531 -532 -722 0
533 534 -723 0
-533 534 723 0
533 -534 723 0
-533 -534 -723 0
535 536 -724 0
-535 536 724 0
535 -536 724 0
-535 -536 -724 0
537 538 -725 0
-537 538 725 0
537 -538 725 0
-537 -538 -725 0
539 540 -726 0
-539 540 726 0
539 -540 726 0
-539 -540 -726 0
541 542 -727 0
-541 542 727 0
541 -542 727 0
-541 -542 -727 0
543 544 -728 0
-543 544 728 0
543 -544 728 0
-543 -544 -728 0
545 546 -729 0
-545 546 729 0
545 -546 729 0
-545 -546 -729 0
547 548 -730 0
-547 548 730 0
547 -548 730 0
-547 -548 -730 0
549 550 -731 0
-549 550 731 0
549 -550 731 0
-549 -550 -731 0
551 552 -732 0
-551 552 732 0
551 -552 732 0
-551 -552 -732 0
553 554 -733 0
-553 554 733 0
553 -554 733 0
-553 -554 -733 0
555 556 -734 0
-555 556 734 0
555 -556 734 0
-555 -556 -734 0
557 558 -735 0
-557 558 735 0
557 -558 735 0
-557 -558 -735 0
559 560 -736 0
-559 560 736 0
559 -560 736 0
-559 -560 -736 0
561 562 -737 0
-561 562 737 0
561 -562 737 0
-561 -562 -737 0
563 564 -738 0
-563 564 738 0
563 -564 738 0
-563 -564 -738 0
565 566 -739 0
-565 566 739 0
565 -566 739 0
-565 -566 -739 0
567 568 -740 0
-567 568 740 0
567 -568 740 0
-567 -568 -740 0
569 570 -741 0
-569 570 741 0
569 -570 741 0
-569 -570 -741 0
571 572 -742 0
-571 572 742 0
571 -572 742 0
-571 -572 -742 0
573 574 -743 0
-573 574 743 0
573 -574 743 0
-573 -574 -743 0
575 576 -744 0
-575 576 744 0
575 -576 744 0
-575 -576 -744 0
577 578 -745 0
-577 578 745 0
577 -578 745 0
-577 -578 -745 0
579 580 -746 0
-579 580 746 0
579 -580 746 0
-579 -580 -746 0
581 582 -747 0
-581 582 747 0
581 -582 747 0
-581 -582 -747 0
583 584 -748 0
-583 584 748 0
583 -584 748 0
-583 -584 -748 0
585 586 -749 0
-585 586 749 0
585 -586 749 0
-585 -586 -749 0
587 588 -750 0
-587 588 750 0
587 -588 750 0
-587 -588 -750 0
589 590 -751 0
-589 590 751 0
589 -590 751 0
-589 -590 -751 0
591 592 -752 0
-591 592 752 0
591 -592 752 0
-591 -592 -752 0
593 594 -753 0
-593 594 753 0
593 -594 753 0
-593 -594 -753 0
595 596 -754 0
-595 596 754 0
595 -596 754 0
-595 -596 -754 0
597 598 -755 0
-597 598 755 0
597 -598 755 0
-597 -598 -755 0
599 600 -756 0
-599 600 756 0
599 -600 756 0
-599 -600 -756 0
601 602 -757 0
-601 602 757 0
601 -602 757 0
-601 -602 -757 0
603 604 -758 0
-603 604 758 0
603 -604 758 0
-603 -604 -758 0
605 606 -759 0
-605 606 759 0
605 -606 759 0
-605 -606 -759 0
607 608 -760 0
-607 608 760 0
607 -608 760 0
-607 -608 -760 0
609 610 -761 0
-609 610 761 0
609 -610 761 0
-609 -610 -761 0
611 612 -762 0
-611 612 762 0
611 -612 762 0
-611 -612 -762 0
613 614 -763 0
-613 614 763 0
613 -614 763 0
-613 -614 -763 0
615 616 -764 0
-615 616 764 0
615 -616 764 0
-615 -616 -764 0
617 618 -765 0
-617 618 765 0
617 -618 765 0
-617 -618 -765 0
619 620 -766 0
-619 620 766 0
619 -620 766 0
-619 -620 -766 0
621 622 -767 0
-621 622 767 0
621 -622 767 0
-621 -622 -767 0
623 624 -768 0
-623 624 768 0
623 -624 768 0
-623 -624 -768 0
625 626 -769 0
-625 626 769 0
625 -626 769 0
-625 -626 -769 0
627 628 -770 0
-627 628 770 0
627 -628 770 0
-627 -628 -770 0
629 630 -771 0
-629 630 771 0
629 -630 771 0
-629 -630 -771 0
631 632 -772 0
-631 632 772 0
631 -632 772 0
-631 -632 -772 0
633 634 -773 0
-633 634 773 0
633 -634 773 0
-633 -634 -773 0
635 636 -774 0
-635 636 774 0
635 -636 774 0
-635 -636 -774 0
637 638 -775 0
-637 638 775 0
637 -638 775 0
-637 -638 -775 0
639 640 -776 0
-639 640 776 0
639 -640 776 0
-639 -640 -776 0
641 642 -777 0
-641 642 777 0
641 -642 777 0
-641 -642 -777 0
643 644 -778 0
-643 644 778 0
643 -644 778 0
-643 -644 -778 0
645 646 -779 0
-645 646 779 0
645 -646 779 0
-645 -646 -779 0
647 648 -780 0
-647 648 780 0
647 -648 780 0
-647 -648 -780 0
649 650 -781 0
-649 650 781 0
649 -650 781 0
-649 -650 -781 0
651 652 -782 0
-651 652 782 0
651 -652 782 0
-651 -652 -782 0
653 654 -783 0
-653 654 783 0
653 -654 783 0
-653 -654 -783 0
655 656 -784 0
-655 656 784 0
655 -656 784 0
-655 -656 -784 0
657 658 -785 0
-657 658 785 0
657 -658 785 0
-657 -658 -785 0
659 660 -786 0
-659 660 786 0
659 -660 786 0
-659 -660 -786 0
661 662 -787 0
-661 662 787 0
661 -662 787 0
-661 -662 -787 0
663 664 -788 0
-663 664 788 0
663 -664 788 0
-663 -664 -788 0
665 666 -789 0
-665 666 789 0
665 -666 789 0
-665 -666 -789 0
667 668 -790 0
-667 668 790 0
667 -668 790 0
-667 -668 -790 0
669 670 -791 0
-669 670 791 0
669 -670 791 0
-669 -670 -791 0
671 672 -792 0
-671 672 792 0
671 -672 792 0
-671 -672 -792 0
673 674 -793 0
-673 674 793 0
673 -674 793 0
-673 -674 -793 0
675 676 -794 0
-675 676 794 0
675 -676 794 0
-675 -676 -794 0
677 678 -795 0
-677 678 795 0
677 -678 795 0
-677 -678 -795 0
679 680 -796 0
-679 680 796 0
679 -680 796 0
-679 -680 -796 0
681 682 -797 0
-681 682 797 0
681 -682 797 0
-681 -682 -797 0
683 684 -798 0
-683 684 798 0
683 -684 798 0
-683 -684 -798 0
685 455 -799 0
-685 455 799 0
685 -455 799 0
-685 -455 -799 0
686 687 -800 0
-686 687 800 0
686 -687 800 0
-686 -687 -800 0
688 689 -801 0
-688 689 801 0
688 -689 801 0
-688 -689 -801 0
690 691 -802 0
-690 691 802 0
690 -691 802 0
-690 -691 -802 0
692 693 -803 0
-692 693 803 0
692 -693 803 0
-692 -693 -803 0
694 695 -804 0
-694 695 804 0
694 -695 804 0
-694 -695 -804 0
696 697 -805 0
-696 697 805 0
696 -697 805 0
-696 -697 -805 0
698 699 -806 0
-698 699 806 0
698 -699 806 0
-698 -699 -806 0
700 701 -807 0
-700 701 807 0
700 -701 807 0
-700 -701 -807 0
702 703 -808 0
-702 703 808 0
702 -703 808 0
-702 -703 -808 0
704 705 -809 0
-704 705 809 0
704 -705 809 0
-704 -705 -809 0
706 707 -810 0
-706 707 810 0
706 -707 810 0
-706 -707 -810 0
708 709 -811 0
-708 709 811 0
708 -709 811 0
-708 -709 -811 0
710 711 -812 0
-710 711 812 0
710 -711 812 0
-710 -711 -812 0
712 713 -813 0
-712 713 813 0
712 -713 813 0
-712 -713 -813 0
714 715 -814 0
-714 715 814 0
714 -715 814 0
-714 -715 -814 0
716 717 -815 0
-716 717 815 0
716 -717 815 0
-716 -717 -815 0
718 719 -816 0
-718 719 816 0
718 -719 816 0
-718 -719 -816 0
720 721 -817 0
-720 721 817 0
720 -721 817 0
-720 -721 -817 0
722 723 -818 0
-722 723 818 0
722 -723 818 0
-722 -723 -818 0
724 725 -819 0
-724 725 819 0
724 -725 819 0
-724 -725 -819 0
726 727 -820 0
-726 727 820 0
726 -727 820 0
-726 -727 -820 0
728 729 -821 0
-728 729 821 0
728 -729 821 0
-728 -729 -821 0
730 731 -822 0
-730 731 822 0
730 -731 822 0
-730 -731 -822 0
732 733 -823 0
-732 733 823 0
732 -733 823 0
-732 -733 -823 0
734 735 -824 0
-734 735 824 0
734 -735 824 0
-734 -735 -824 0
736 737 -825 0
-736 737 825 0
736 -737 825 0
-736 -737 -825 0
738 739 -826 0
-738 739 826 0
738 -739 826 0
-738 -739 -826 0
740 741 -827 0
-740 741 827 0
740 -741 827 0
-740 -741 -827 0
742 743 -828 0
-742 743 828 0
742 -743 828 0
-742 -743 -828 0
744 745 -829 0
-744 745 829 0
744 -745 829 0
-744 -745 -829 0
746 747 -830 0
-746 747 830 0
746 -747 830 0
-746 -747 -830 0
748 749 -831 0
-748 749 831 0
748 -749 831 0
-748 -749 -831 0
750 751 -832 0
-750 751 832 0
750 -751 832 0
-750 -751 -832 0
752 753 -833 0
-752 753 833 0
752 -753 833 0
-752 -753 -833 0
754 755 -834 0
-754 755 834 0
754 -755 834 0
-754 -755 -834 0
756 757 -835 0
-756 757 835 0
756 -757 835 0
-756 -757 -835 0
758 759 -836 0
-758 759 836 0
758 -759 836 0
-758 -759 -836 0
760 761 -837 0
-760 761 837 0
760 -761 837 0
-760 -761 -837 0
762 763 -838 0
-762 763 838 0
762 -763 838 0
-762 -763 -838 0
764 765 -839 0
-764 765 839 0
764 -765 839 0
-764 -765 -839 0
766 767 -840 0
-766 767 840 0
766 -767 840 0
-766 -767 -840 0
768 769 -841 0
-768 769 841 0
768 -769 841 0
-768 -769 -841 0
770 771 -842 0
-770 771 842 0
770 -771 842 0
-770 -771 -842 0
772 773 -843 0
-772 773 843 0
772 -773 843 0
-772 -773 -843 0
774 775 -844 0
-774 775 844 0
774 -775 844 0
-774 -775 -844 0
776 777 -845 0
-776 777 845 0
776 -777 845 0
-776 -777 -845 0
778 779 -846 0
-778 779 846 0
778 -779 846 0
-778 -779 -846 0
780 781 -847 0
-780 781 847 0
780 -781 847 0
-780 -781 -847 0
782 783 -848 0
-782 783 848 0
782 -783 848 0
-782 -783 -848 0
784 785 -849 0
-784 785 849 0
784 -785 849 0
-784 -785 -849 0
786 787 -850 0
-786 787 850 0
786 -787 850 0
-786 -787 -850 0
788 789 -851 0
-788 789 851 0
788 -789 851 0
-788 -789 -851 0
790 791 -852 0
-790 791 852 0
790 -791 852 0
-790 -791 -852 0
792 793 -853 0
-792 793 853 0
792 -793 853 0
-792 -793 -853 0
794 795 -854 0
-794 795 854 0
794 -795 854 0
-794 -795 -854 0
796 797 -855 0
-796 797 855 0
796 -797 855 0
-796 -797 -855 0
798 799 -856 0
-798 799 856 0
798 -799 856 0
-798 -799 -856 0
800 801 -857 0
-800 801 857 0
800 -801 857 0
-800 -801 -857 0
802 803 -858 0
-802 803 858 0
802 -803 858 0
-802 -803 -858 0
804 805 -859 0
-804 805 859 0
804 -805 859 0
-804 -805 -859 0
806 807 -860 0
-806 807 860 0
806 -807 860 0
-806 -807 -860 0
808 809 -861 0
-808 809 861 0
808 -809 861 0
-808 -809 -861 0
810 811 -862 0
-810 811 862 0
810 -811 862 0
-810 -811 -862 0
812 813 -863 0
-812 813 863 0
812 -813 863 0
-812 -813 -863 0
814 815 -864 0
-814 815 864 0
814 -815 864 0
-814 -815 -864 0
816 817 -865 0
-816 817 865 0
816 -817 865 0
-816 -817 -865 0
818 819 -866 0
-818 819 866 0
818 -819 866 0
-818 -819 -866 0
820 821 -867 0
-820 821 867 0
820 -821 867 0
-820 -821 -867 0
822 823 -868 0
-822 823 868 0
822 -823 868 0
-822 -823 -868 0
824 825 -869 0
-824 825 869 0
824 -825 869 0
-824 -825 -869 0
826 827 -870 0
-826 827 870 0
826 -827 870 0
-826 -827 -870 0
828 829 -871 0
-828 829 871 0
828 -829 871 0
-828 -829 -871 0
830 831 -872 0
-830 831 872 0
830 -831 872 0
-830 -831 -872 0
832 833 -873 0
-832 833 873 0
832 -833 873 0
-832 -833 -873 0
834 835 -874 0
-834 835 874 0
834 -835 874 0
-834 -835 -874 0
836 837 -875 0
-836 837 875 0
836 -837 875 0
-836 -837 -875 0
838 839 -876 0
-838 839 876 0
838 -839 876 0
-838 -839 -876 0
840 841 -877 0
-840 841 877 0
840 -841 877 0
-840 -841 -877 0
842 843 -878 0
-842 843 878 0
842 -843 878 0
-842 -843 -878 0
844 845 -879 0
-844 845 879 0
844 -845 879 0
-844 -845 -879 0
846 847 -880 0
-846 847 880 0
846 -847 880 0
-846 -847 -880 0
848 849 -881 0
-848 849 881 0
848 -849 881 0
-848 -849 -881 0
850 851 -882 0
-850 851 882 0
850 -851 882 0
-850 -851 -882 0
852 853 -883 0
-852 853 883 0
852 -853 883 0
-852 -853 -883 0
854 855 -884 0
-854 855 884 0
854 -855 884 0
-854 -855 -884 0
857 858 -885 0
-857 858 885 0
857 -858 885 0
-857 -858 -885 0
859 860 -886 0
-859 860 886 0
859 -860 886 0
-859 -860 -886 0
861 862 -887 0
-861 862 887 0
861 -862 887 0
-861 -862 -887 0
863 864 -888 0
-863 864 888 0
863 -864 888 0
-863 -864 -888 0
865 866 -889 0
-865 866 889 0
865 -866 889 0
-865 -866 -889 0
867 868 -890 0
-867 868 890 0
867 -868 890 0
-867 -868 -890 0
869 870 -891 0
-869 870 891 0
869 -870 891 0
-869 -870 -891 0
871 872 -892 0
-871 872 892 0
871 -872 892 0
-871 -872 -892 0
873 874 -893 0
-873 874 893 0
873 -874 893 0
-873 -874 -893 0
875 876 -894 0
-875 876 894 0
875 -876 894 0
-875 -876 -894 0
877 878 -895 0
-877 878 895 0
877 -878 895 0
-877 -878 -895 0
879 880 -896 0
-879 880 896 0
879 -880 896 0
-879 -880 -896 0
881 882 -897 0
-881 882 897 0
881 -882 897 0
-881 -882 -897 0
883 884 -898 0
-883 884 898 0
883 -884 898 0
-883 -884 -898 0
885 886 -899 0
-885 886 899 0
885 -886 899 0
-885 -886 -899 0
887 888 -900 0
-887 888 900 0
887 -888 900 0
-887 -888 -900 0
889 890 -901 0
-889 890 901 0
889 -890 901 0
-889 -890 -901 0
891 892 -902 0
-891 892 902 0
891 -892 902 0
-891 -892 -902 0
893 894 -903 0
-893 894 903 0
893 -894 903 0
-893 -894 -903 0
895 896 -904 0
-895 896 904 0
895 -896 904 0
-895 -896 -904 0
897 898 -905 0
-897 898 905 0
897 -898 905 0
-897 -898 -905 0
899 900 -906 0
-899 900 906 0
899 -900 906 0
-899 -900 -906 0
901 902 -907 0
-901 902 907 0
901 -902 907 0
-901 -902 -907 0
903 904 -908 0
-903 904 908 0
903 -904 908 0
-903 -904 -908 0
905 856 -909 0
-905 856 909 0
905 -856 909 0
-905 -856 -909 0
906 907 -910 0
-906 907 910 0
906 -907 910 0
-906 -907 -910 0
908 909 -911 0
-908 909 911 0
908 -909 911 0
-908 -909 -911 0
910 911 -456 0
-910 911 456 0
910 -911 456 0
-910 -911 -456 0
